mapa = [|
         9,9,9,9,9,9,9|
         9,9,8,8,8,9,9|
         9,9,1,8,1,9,9|
         9,0,0,1,0,0,9|
         9,0,0,0,0,0,9|
         9,9,9,9,9,9,9|];
dimx = 6;
dimy = 7;
filav = 5;
colav = 4;
from = [1,2,3,4,5,6,8,9,10,11,12,13,15,16,17,18,19,20,22,23,24,25,26,27,29,30,31,32,33,34,1,2,3,4,5,6,8,9,10,11,12,13,15,16,17,18,19,20,22,23,24,25,26,27,29,30,31,32,33,34,7,14,21,28,35,36,37,38,39,40,41];
to = [2,3,4,5,6,7,9,10,11,12,13,14,16,17,18,19,20,21,23,24,25,26,27,28,30,31,32,33,34,35,8,9,10,11,12,13,15,16,17,18,19,20,22,23,24,25,26,27,29,30,31,32,33,34,36,37,38,39,40,41,14,21,28,35,42,37,38,39,40,41,42];
